
Gurobi 10.0.1 (linux64) logging started Sun Nov 26 16:57:11 2023

Set parameter LogFile to value "ArtificialInstance/ExperimentV2/S4T5K3/AdRo/gurobiDoRo50.txt"
Gurobi Optimizer version 10.0.1 build v10.0.1rc0 (linux64)

CPU model: AMD EPYC 7H12 64-Core Processor, instruction set [SSE2|AVX|AVX2]
Thread count: 128 physical cores, 128 logical processors, using up to 32 threads

Academic license 656792 - for non-commercial use only - registered to b.___@student.vu.nl
Optimize a model with 27254 rows, 25231 columns and 98518 nonzeros
Model fingerprint: 0x4a077689
Variable types: 1 continuous, 25230 integer (25230 binary)
Coefficient statistics:
  Matrix range     [1e+00, 4e+01]
  Objective range  [1e+00, 2e+01]
  Bounds range     [1e+00, 1e+00]
  RHS range        [1e+00, 1e+00]
Presolve removed 13083 rows and 12212 columns
Presolve time: 0.39s
Presolved: 14171 rows, 13019 columns, 50918 nonzeros
Variable types: 1 continuous, 13018 integer (13018 binary)

Root relaxation: objective 1.118505e+02, 3679 iterations, 0.20 seconds (0.16 work units)

    Nodes    |    Current Node    |     Objective Bounds      |     Work
 Expl Unexpl |  Obj  Depth IntInf | Incumbent    BestBd   Gap | It/Node Time

H    0     0                     111.8505446   62.39287  44.2%     -    0s
     0     0          -    0       111.85054  111.85054  0.00%     -    0s

Explored 1 nodes (5215 simplex iterations) in 0.70 seconds (0.53 work units)
Thread count was 32 (of 128 available processors)

Solution count 1: 111.851 

Optimal solution found (tolerance 1.00e-04)
Best objective 1.118505445845e+02, best bound 1.118505445845e+02, gap 0.0000%
